Start main function
Create empty WTA with size W: 0, T:0 
 Need Initialized

 ----- start anylisis the structure ----- 
Initialzed by read file 
num : 0
0:36
1:98
2:97
3:61
4:85
Initialized finished
->	value 
T0	36.00 
T1	98.00 
T2	97.00 
T3	61.00 
T4	85.00 
 --- Start Initialize the Root Note ---

 --- Start solve the Root Note ---
enter SolveRootNode
Running HiGHS 1.3.1 [date: 2023-01-06, git hash: 14c0f2256-dirty]
Copyright (c) 2022 ERGO-Code under MIT licence terms

----- Now Initialize master's HIGHS --- 
Now the Scene Pool has : 5
N_rows : 5N_cols : 5column index :  0  1  2  3  4  5 
nz index : 	0	1	2	3	4
nz val : 	1.00	1.00	1.00	1.00	1.00

---- Highs of Master Problem has been Initialized ---- 
--- Now start Column Generation --- 
Now solve Mater Problem
scene pool size : 5


------------- Start Highs ---------------------Presolving model
0 rows, 0 cols, 0 nonzeros
0 rows, 0 cols, 0 nonzeros
Presolve : Reductions: rows 0(-5); columns 0(-5); elements 0(-5) - Reduced to empty
Solving the original LP from the solution after postsolve
Model   status      : Optimal
Objective value     :  3.7700000000e+02
HiGHS run time      :          0.00
Model status: Optimal
Simplex iteration count: 0
Objective function value: 377
Primal  solution status: Feasible
Dual    solution status: Feasible
Basis: Valid
Only Print nonzero solution!
Column 0; value = 1; dual = 0; status: Basic
Column 1; value = 1; dual = 0; status: Basic
Column 2; value = 1; dual = 0; status: Basic
Column 3; value = 1; dual = 0; status: Basic
Column 4; value = 1; dual = 0; status: Basic
 HIGHS use 3.942013e-03 seconds -------------------------------------------------------------- 
 ------------- End Highs ---------------------
There are 	 5 Scenes in the Scene Pool. 
Target 0 : 
Target 1 : 
Target 2 : 
Target 3 : 
Target 4 : 
Now get dual sols from lp to master 
size : 5
dual size : 5
dual 0 : 36.00
dual 1 : 98.00
dual 2 : 97.00
dual 3 : 61.00
dual 4 : 85.00
print dual before solve the subproblem
36.00 98.00 97.00 61.00 85.00 

Now calculate the scene 0